[TITLE]
Balerma Network  

[JUNCTIONS]
 179001                               60.0000
 179                                  60.0000
 177                                  58.9000
 174                                  60.0000
 173                                  59.3000
 171001                               60.0000
 171                                  60.0000
 172                                  60.0000
 170                                  60.0000
 165                                  56.7000
 166                                  57.3000
 168                                  57.1000
 169                                  56.5000
 163                                  55.2000
 164                                  57.8000
 162                                  55.2000
 161                                  55.0000
 106                                  54.0000
 124                                  52.2000
 125                                  51.1000
 125001                               49.4000
 126                                  49.3000
 127                                  56.5000
 128                                  55.0000
 129                                  52.3000
 130                                  50.2000
 132                                  55.0000
 131001                               57.0000
 131                                  52.4000
 133                                  46.6000
 134                                  28.8000
 135                                  60.0000
 136                                  43.3000
 137                                  25.0000
 138                                  23.6000
 139                                  42.5000
 141                                  50.0000
 143                                  38.3000
 144                                  36.8000
 145                                  27.0000
 142                                  24.0000
 140001                               55.5000
 151                                  56.5000
 152                                  55.0000
 107                                  50.0000
 108                                  46.2000
 109                                  48.6000
 110                                  47.6000
 111                                  47.1000
 113                                  47.9000
 114                                  46.0000
 112                                  45.6000
 115                                  50.0000
 116                                  50.0000
 117                                  47.5000
 118                                  45.0000
 119                                  46.0000
 105                                  55.8000
 102                                  54.5000
 103                                  51.5000
 104                                  52.4000
 100                                  53.1000
 101                                  51.2000
 96                                   52.8000
 97                                   51.4000
 98                                   46.0000
 99                                   45.0000
 93                                   50.0000
 94                                   51.7000
 95                                   51.4000
 92                                   40.0000
 160                                  32.9000
 159001                               34.0000
 159                                  31.4000
 156                                  34.2000
 157                                  40.0000
 158                                  46.0000
 155                                  34.0000
 154                                  41.6000
 153                                  34.0000
 55                                   30.0000
 59                                   21.0000
 60                                   11.0000
 61                                    5.0000
 62                                    3.5000
 147                                  33.0000
 150                                  45.0000
 148                                  29.0000
 149                                  19.0000
 63                                    9.0000
 64                                    4.5000
 65                                    3.3000
 66                                    1.2000
 67                                   12.3000
 68                                    9.3000
 69                                    8.1600
 70                                    8.8000
 71                                    8.1000
 72                                    7.4000
 56                                   12.9000
 57                                    4.8000
 58                                    3.0000
 53                                   14.5000
 54                                    4.1000
 52                                   31.0000
 46001                                33.0000
 50                                   20.0000
 51                                    4.4000
 47                                   13.1000
 48                                    7.1000
 49                                    1.6000
 42                                   15.0000
 45                                    5.9000
 46                                    3.5000
 41                                   31.0000
 35                                   30.0000
 36                                   13.0000
 39                                   10.0000
 40                                    6.3000
 37                                    6.0000
 91                                   42.5000
 90                                   45.0000
 89                                   47.0000
 31                                   20.0000
 32                                    7.1000
 34                                    4.4000
 33                                    4.6000
 28001                                32.2000
 28                                   22.5000
 29                                    9.2000
 30                                    5.6500
 27                                   31.2000
 26                                   12.3000
 23                                    7.5000
 22                                    5.2000
 87                                   40.3000
 86                                   41.4000
 83                                   40.2000
 77                                   45.0000
 81                                   44.4000
 78                                   44.8000
 79                                   45.8000
 80                                   46.6000
 82                                   46.9000
 84                                   40.0000
 85                                   50.0000
 121                                  50.0000
 122                                  49.3000
 123                                  47.3000
 120                                  49.5000
 75                                   47.0000
 76                                   47.4000
 73                                   32.5000
 74                                   40.0000
 227                                  52.8000
 215001                               75.0000
 215                                  60.0000
 219                                  50.0000
 220                                  52.3000
 221                                  51.7000
 222                                  52.0000
 223                                  50.8000
 223001                               54.5000
 224                                  50.1000
 225                                  49.5000
 226                                  50.7000
 214                                  74.0000
 216                                  62.7000
 217                                  62.0000
 218                                  57.2500
 201                                  95.0000
 203                                  94.2000
 204                                  92.9000
 205                                  91.4000
 211                                  90.8000
 212                                  65.0000
 206                                  84.2000
 207                                  80.6000
 208                                  76.8000
 209                                  70.0000
 210                                  70.0000
 213                                  73.8000
 200001                               95.0000
 199                                  94.0000
 196                                  92.7000
 197                                  90.0000
 198                                  89.6000
 233                                  87.1700
 232                                  84.2000
 231                                  80.5000
 230                                  72.5000
 234                                  65.0000
 194                                  95.0000
 195                                  95.0000
 192                                  95.0000
 193                                  85.0000
 234001                               65.0000
 235                                  71.5000
 236                                  76.0000
 237                                  83.0000
 238                                  81.3000
 240                                  83.0000
 239                                  86.3000
 190001                               95.0000
 187                                  95.0000
 188                                  94.2000
 189                                  90.5000
 186                                  95.0000
 185                                  95.0000
 235001                               75.5000
 241                                  83.3000
 242                                  87.8000
 243                                  83.6000
 244                                  78.1000
 245                                  83.5000
 183                                  87.7000
 184                                  85.7000
 182                                  95.0000
 249                                  94.1000
 248                                  95.0000
 247                                  90.8000
 246                                  85.0000
 181                                  93.0000
 266                                  71.4000
 180004                               84.2000
 190                                  95.0000
 191                                  91.8000
 180003                               90.0000
 180002                               95.0000
 180001                               95.6000
 180                                  95.0000
 287                                  73.3000
 286                                  72.0000
 285                                  71.0000
 284                                  70.0000
 200                                  77.8000
 274                                  65.5000
 275                                  66.0000
 276                                  71.0000
 265                                  70.0000
 268                                  65.0000
 269                                  66.0000
 271                                  72.4000
 270                                  73.7000
 318                                  35.0000
 317                                  40.0000
 316                                  46.0000
 315                                  45.0000
 313                                  45.0000
 314                                  40.0000
 312                                  45.6000
 310                                  45.7000
 311                                  48.4000
 309                                  50.0000
 297                                  52.0000
 298                                  55.0000
 299                                  60.0000
 296                                  51.7000
 294                                  48.5000
 293                                  47.6000
 291                                  49.0000
 295                                  51.4000
 288                                  55.0000
 289                                  71.0000
 290                                  68.0000
 282                                  66.8000
 277                                  60.0000
 278                                  67.2000
 279                                  71.4000
 280                                  73.6000
 281                                  75.0000
 272                                  73.4000
 273                                  70.0000
 264                                  70.5000
 257001                               71.0000
 258001                               74.4000
 259001                               71.6000
 260001                               75.3000
 261                                  76.4000
 262                                  76.0000
 263                                  75.8000
 255                                  82.6000
 258                                  83.5000
 259                                  83.3000
 260                                  81.5000
 256                                  84.0000
 257                                  87.0000
 254                                  83.9000
 250004                               85.0000
 421                                  98.1000
 420                                  99.8000
 419                                 101.1000
 418                                 103.0000
 416                                 103.0000
 417                                 104.0000
 415                                 103.0000
 414                                 102.0000
 413                                 100.0000
 250001                              100.0000
 21                                    4.8000
 319                                  46.9000
 320                                  47.5000
 20                                   11.0000
 19                                    3.2000
 18                                    8.0000
 302                                  50.0000
 303                                  50.0000
 305                                  51.0000
 306                                  54.8000
 307                                  54.8000
 321                                  50.0000
 11                                    4.0000
 322                                  47.4000
 323                                  44.0000
 301                                  75.2000
 300                                  75.0000
 324                                  53.4000
 368                                  58.0000
 367                                  59.8000
 369                                  59.2000
 325                                  75.0000
 365                                  79.7000
 362                                  80.0000
 360001                               80.5000
 360                                  80.6000
 359                                  80.7000
 361                                  79.5000
 366                                  79.4000
 364                                  80.0000
 363                                  80.5000
 326                                  75.7000
 327                                  76.5000
 328                                  77.0000
 329                                  77.7000
 330                                  75.3000
 334                                  80.2000
 336                                  80.0000
 331                                  75.7000
 332                                  75.0000
 333                                  80.0000
 337                                  84.3600
 338                                  81.1000
 340                                  83.5400
 341                                  83.6000
 250                                  83.0000
 251                                  82.5000
 253                                  78.8000
 252                                  78.8000
 342                                  82.8000
 343                                  82.2000
 344                                  80.2000
 339                                  81.6000
 250003                               86.0000
 250002                               88.6000
 412                                  90.0000
 411                                  89.7000
 410                                  89.7000
 409                                  87.0000
 408                                  86.7000
 407001                               85.0000
 407                                  84.5000
 345                                  84.4000
 346                                  84.1000
 347                                  83.1000
 348                                  82.9000
 349                                  82.7600
 350                                  84.2000
 350001                               83.7000
 351                                  83.6000
 356                                  82.3000
 352                                  82.1000
 335                                  80.4000
 406                                  84.4000
 405                                  84.3000
 404                                  83.7400
 353                                  81.8000
 354                                  81.5000
 355                                  81.1000
 357                                  82.1000
 358                                  82.0000
 370                                  59.5000
 371                                  59.2000
 372                                  57.2000
 373                                  68.0000
 374                                  69.5000
 378                                  56.6000
 379                                  53.0000
 380                                  50.5000
 381                                  45.0000
 382                                  45.0000
 376                                  56.2000
 377                                  52.7000
 383                                  52.7000
 384                                  56.0000
 396001                               80.4000
 397                                  80.5000
 398                                  80.5000
 400                                  81.7000
 401                                  81.7000
 402                                  80.8000
 403                                  80.9000
 10                                    3.3000
 9                                     1.7000
 8                                     8.5000
 2                                    16.5000
 1                                    13.2000
 3                                    23.9000
 385                                  54.7000
 17                                   10.0000
 16                                    8.1000
 15                                    6.7000
 13                                   12.4000
 12                                   15.0000
 14                                   19.2500
 6                                    18.4000
 5                                    12.5000
 601                                  56.0000
 387                                  54.8000
 388                                  54.8000
 389                                  55.5000
 390                                  52.5000
 391                                  53.0000
 392                                  52.0000
 393                                  50.0000
 394                                  56.4000
 395                                  55.6000
 396                                  40.4000
 4                                    14.2000
 7                                    10.0000
 228                                  49.8000
 229                                  49.6000
 256001                               75.0000
 399                                  81.7000
 24                                   10.0000
 24001                                10.0000
 25                                   14.5000
 45001                                32.0000
 71001                                 8.1000
 127001                               56.0000
 202001                               70.0000
 301001                               75.0000
 304                                  50.8000
 422                                 103.0000

[RESERVOIRS]
 38                                  117.0000                                
 43                                  127.0000                                
 44                                  122.0000                                
 88                                  112.0000                                

[TANKS]

[PIPES]
 1                               126                             125001                               65.0000     113.0000       0.0025       0.0000       
 2                               125001                          125                                 260.0000     113.0000       0.0025       0.0000       
 3                               125                             124                                 164.0000     113.0000       0.0025       0.0000       
 4                               124                             106                                 250.0000     285.0000       0.0025       0.0000       
 8                               106                             161                                 100.0000     162.8000       0.0025       0.0000       
 10                              161                             162                                  68.0000     162.8000       0.0025       0.0000       
 11                              162                             163                                 164.0000     162.8000       0.0025       0.0000       
 12                              163                             164                                 164.0000     113.0000       0.0025       0.0000       
 13                              163                             165                                  65.0000     144.6000       0.0025       0.0000       
 15                              165                             166                                  98.0000     113.0000       0.0025       0.0000       
 16                              166                             168                                 145.0000     113.0000       0.0025       0.0000       
 17                              165                             170                                  96.0000     144.6000       0.0025       0.0000       
 18                              170                             171001                              181.0000     126.6000       0.0025       0.0000       
 19                              171001                          171                                  92.0000     113.0000       0.0025       0.0000       
 20                              171                             172                                 100.0000     113.0000       0.0025       0.0000       
 21                              171001                          173                                 177.0000     126.6000       0.0025       0.0000       
 22                              173                             179                                 159.0000     113.0000       0.0025       0.0000       
 23                              173                             174                                 155.0000     113.0000       0.0025       0.0000       
 26                              179                             179001                              168.0000     113.0000       0.0025       0.0000       
 27                              179                             177                                 103.0000     113.0000       0.0025       0.0000       
 28                              168                             169                                 113.0000     113.0000       0.0025       0.0000       
 30                              124                             127                                 850.0000     285.0000       0.0025       0.0000       
 32                              128                             129                                 149.0000     113.0000       0.0025       0.0000       
 33                              129                             130                                 175.0000     113.0000       0.0025       0.0000       
 34                              127001                          131001                              500.0000     285.0000       0.0025       0.0000       
 35                              131                             132                                 134.0000     113.0000       0.0025       0.0000       
 40                              131001                          131                                 164.0000     113.0000       0.0025       0.0000       
 41                              131                             133                                 137.0000     113.0000       0.0025       0.0000       
 42                              133                             134                                 223.0000     113.0000       0.0025       0.0000       
 43                              131001                          135                                 394.0000     285.0000       0.0025       0.0000       
 44                              135                             136                                 191.0000     113.0000       0.0025       0.0000       
 46                              136                             137                                 440.0000     113.0000       0.0025       0.0000       
 47                              136                             138                                 459.0000     113.0000       0.0025       0.0000       
 50                              136                             139                                 184.0000     113.0000       0.0025       0.0000       
 56                              141                             143                                 300.0000     113.0000       0.0025       0.0000       
 57                              143                             144                                 116.0000     113.0000       0.0025       0.0000       
 58                              144                             145                                 198.0000     113.0000       0.0025       0.0000       
 59                              141                             142                                 510.0000     113.0000       0.0025       0.0000       
 61                              141                             140001                              127.0000     144.6000       0.0025       0.0000       
 62                              140001                          151                                 189.0000     144.6000       0.0025       0.0000       
 63                              151                             152                                  95.0000     113.0000       0.0025       0.0000       
 65                              124                             107                                 250.0000     113.0000       0.0025       0.0000       
 67                              107                             108                                 375.0000     113.0000       0.0025       0.0000       
 68                              108                             109                                 100.0000     113.0000       0.0025       0.0000       
 69                              109                             110                                 231.0000     113.0000       0.0025       0.0000       
 70                              110                             111                                  61.0000     113.0000       0.0025       0.0000       
 71                              110                             112                                 282.0000     113.0000       0.0025       0.0000       
 73                              112                             113                                  88.0000     113.0000       0.0025       0.0000       
 74                              113                             114                                 134.0000     113.0000       0.0025       0.0000       
 77                              115                             116                                  40.0000     113.0000       0.0025       0.0000       
 78                              116                             117                                 189.0000     113.0000       0.0025       0.0000       
 81                              119                             118                                 225.0000     113.0000       0.0025       0.0000       
 82                              117                             119                                 201.0000     113.0000       0.0025       0.0000       
 38                              106                             105                                  66.0000     126.6000       0.0025       0.0000       
 39                              105                             102                                  78.0000     126.6000       0.0025       0.0000       
 49                              102                             100                                 197.0000     126.6000       0.0025       0.0000       
 52                              100                             101                                 197.0000     113.0000       0.0025       0.0000       
 53                              102                             103                                 177.0000     113.0000       0.0025       0.0000       
 83                              103                             104                                  85.0000     113.0000       0.0025       0.0000       
 84                              100                             96                                  222.0000     113.0000       0.0025       0.0000       
 86                              96                              97                                  288.0000     113.0000       0.0025       0.0000       
 87                              97                              98                                  130.0000     113.0000       0.0025       0.0000       
 88                              98                              99                                  127.0000     113.0000       0.0025       0.0000       
 89                              96                              93                                   96.0000     113.0000       0.0025       0.0000       
 91                              93                              94                                  110.0000     113.0000       0.0025       0.0000       
 92                              94                              95                                  205.0000     113.0000       0.0025       0.0000       
 94                              93                              92                                  176.0000     113.0000       0.0025       0.0000       
 95                              92                              91                                  300.0000     113.0000       0.0025       0.0000       
 96                              91                              160                                 500.0000     113.0000       0.0025       0.0000       
 97                              160                             159001                              119.0000     113.0000       0.0025       0.0000       
 98                              159001                          159                                 228.0000     113.0000       0.0025       0.0000       
 99                              159                             156                                 295.0000     113.0000       0.0025       0.0000       
 101                             156                             157                                 191.0000     113.0000       0.0025       0.0000       
 102                             157                             158                                 129.0000     113.0000       0.0025       0.0000       
 103                             156                             155                                 152.0000     113.0000       0.0025       0.0000       
 104                             155                             154                                 115.0000     113.0000       0.0025       0.0000       
 105                             155                             153                                 444.0000     113.0000       0.0025       0.0000       
 108                             55                              59                                  580.0000     113.0000       0.0025       0.0000       
 110                             59                              60                                  350.0000     113.0000       0.0025       0.0000       
 112                             60                              61                                  209.0000     113.0000       0.0025       0.0000       
 113                             60                              62                                  212.0000     113.0000       0.0025       0.0000       
 114                             141                             147                                 455.0000     162.8000       0.0025       0.0000       
 115                             147                             148                                 250.0000     144.6000       0.0025       0.0000       
 116                             148                             150                                 168.0000     144.6000       0.0025       0.0000       
 118                             148                             149                                 145.0000     113.0000       0.0025       0.0000       
 121                             63                              64                                  172.0000     113.0000       0.0025       0.0000       
 122                             64                              65                                  110.0000     113.0000       0.0025       0.0000       
 123                             65                              66                                  250.0000     113.0000       0.0025       0.0000       
 125                             67                              68                                  148.0000     113.0000       0.0025       0.0000       
 126                             68                              69                                  123.0000     113.0000       0.0025       0.0000       
 127                             68                              70                                  139.0000     113.0000       0.0025       0.0000       
 128                             70                              71                                  210.0000     126.6000       0.0025       0.0000       
 132                             55                              56                                  159.0000     113.0000       0.0025       0.0000       
 133                             56                              57                                  144.0000     113.0000       0.0025       0.0000       
 134                             57                              58                                  148.0000     113.0000       0.0025       0.0000       
 136                             52                              53                                  161.0000     113.0000       0.0025       0.0000       
 137                             53                              54                                  267.0000     113.0000       0.0025       0.0000       
 138                             55                              52                                  320.0000     162.8000       0.0025       0.0000       
 139                             52                              46001                               444.0000     162.8000       0.0025       0.0000       
 140                             46001                           50                                  184.0000     113.0000       0.0025       0.0000       
 141                             50                              51                                  322.0000     113.0000       0.0025       0.0000       
 142                             46001                           47                                  228.0000     113.0000       0.0025       0.0000       
 143                             47                              48                                  129.0000     113.0000       0.0025       0.0000       
 144                             48                              49                                  254.0000     113.0000       0.0025       0.0000       
 146                             41                              42                                  224.0000     113.0000       0.0025       0.0000       
 147                             42                              45                                  202.0000     113.0000       0.0025       0.0000       
 148                             45                              46                                  162.0000     113.0000       0.0025       0.0000       
 149                             45001                           41                                  435.0000     180.8000       0.0025       0.0000       
 150                             41                              35                                  488.0000     226.2000       0.0025       0.0000       
 151                             35                              36                                  179.0000     113.0000       0.0025       0.0000       
 152                             36                              39                                  137.0000     113.0000       0.0025       0.0000       
 153                             39                              40                                  160.0000     113.0000       0.0025       0.0000       
 154                             36                              37                                  168.0000     113.0000       0.0025       0.0000       
 155                             35                              31                                  350.0000     226.2000       0.0025       0.0000       
 157                             31                              32                                  246.0000     113.0000       0.0025       0.0000       
 159                             32                              33                                  100.0000     113.0000       0.0025       0.0000       
 164                             91                              90                                  750.0000     113.0000       0.0025       0.0000       
 167                             90                              89                                  250.0000     285.0000       0.0025       0.0000       
 169                             31                              28                                  250.0000     226.2000       0.0025       0.0000       
 170                             28001                           28                                  200.0000     226.2000       0.0025       0.0000       
 171                             28                              29                                  273.0000     113.0000       0.0025       0.0000       
 172                             29                              30                                  205.0000     113.0000       0.0025       0.0000       
 173                             90                              28001                               200.0000     226.2000       0.0025       0.0000       
 174                             28001                           27                                  312.0000     113.0000       0.0025       0.0000       
 175                             27                              26                                  308.0000     113.0000       0.0025       0.0000       
 176                             26                              23                                   40.0000     113.0000       0.0025       0.0000       
 90                              83                              77                                  346.0000     285.0000       0.0025       0.0000       
 107                             77                              81                                  334.0000     113.0000       0.0025       0.0000       
 191                             81                              78                                   73.0000     113.0000       0.0025       0.0000       
 192                             78                              79                                  114.0000     113.0000       0.0025       0.0000       
 193                             79                              80                                   93.0000     113.0000       0.0025       0.0000       
 198                             84                              85                                  161.0000     113.0000       0.0025       0.0000       
 199                             115                             120                                 221.0000     113.0000       0.0025       0.0000       
 200                             120                             121                                 150.0000     113.0000       0.0025       0.0000       
 201                             121                             122                                 254.0000     113.0000       0.0025       0.0000       
 202                             122                             123                                 160.0000     113.0000       0.0025       0.0000       
 204                             77                              75                                  400.0000     285.0000       0.0025       0.0000       
 208                             77                              76                                   66.0000     113.0000       0.0025       0.0000       
 212                             73                              74                                  127.0000     113.0000       0.0025       0.0000       
 220                             219                             220                                 105.0000     113.0000       0.0025       0.0000       
 224                             220                             221                                 187.0000     113.0000       0.0025       0.0000       
 226                             221                             222                                  86.0000     113.0000       0.0025       0.0000       
 227                             222                             223                                 126.0000     113.0000       0.0025       0.0000       
 228                             221                             223001                              250.0000     113.0000       0.0025       0.0000       
 229                             223001                          224                                 116.0000     113.0000       0.0025       0.0000       
 230                             224                             225                                 269.0000     113.0000       0.0025       0.0000       
 231                             225                             226                                  42.0000     113.0000       0.0025       0.0000       
 244                             215                             214                                 329.0000     113.0000       0.0025       0.0000       
 245                             214                             216                                 145.0000     113.0000       0.0025       0.0000       
 246                             216                             217                                  56.0000     113.0000       0.0025       0.0000       
 247                             216                             218                                 171.0000     113.0000       0.0025       0.0000       
 249                             214                             203                                 236.0000     113.0000       0.0025       0.0000       
 251                             215001                          202001                              264.0000     361.8000       0.0025       0.0000       
 254                             203                             204                                 108.0000     144.6000       0.0025       0.0000       
 255                             204                             205                                 125.0000     126.6000       0.0025       0.0000       
 256                             204                             211                                 190.0000     113.0000       0.0025       0.0000       
 257                             211                             212                                 269.0000     113.0000       0.0025       0.0000       
 258                             205                             206                                 227.0000     126.6000       0.0025       0.0000       
 259                             206                             207                                 110.0000     126.6000       0.0025       0.0000       
 260                             207                             208                                 110.0000     113.0000       0.0025       0.0000       
 261                             208                             213                                 140.0000     113.0000       0.0025       0.0000       
 262                             208                             209                                 284.0000     113.0000       0.0025       0.0000       
 263                             209                             210                                 298.0000     113.0000       0.0025       0.0000       
 265                             203                             201                                 200.0000     226.2000       0.0025       0.0000       
 268                             201                             200001                              150.0000     226.2000       0.0025       0.0000       
 269                             200001                          199                                 193.0000     285.0000       0.0025       0.0000       
 271                             234                             230                                  73.0000     144.6000       0.0025       0.0000       
 272                             230                             231                                 156.0000     126.6000       0.0025       0.0000       
 273                             231                             232                                 132.0000     113.0000       0.0025       0.0000       
 274                             232                             233                                 106.0000     113.0000       0.0025       0.0000       
 275                             199                             196                                 160.0000     113.0000       0.0025       0.0000       
 276                             196                             197                                 225.0000     113.0000       0.0025       0.0000       
 277                             197                             198                                  93.0000     113.0000       0.0025       0.0000       
 278                             199                             192                                 325.0000     285.0000       0.0025       0.0000       
 279                             192                             194                                 106.0000     113.0000       0.0025       0.0000       
 280                             194                             195                                 194.0000     113.0000       0.0025       0.0000       
 282                             192                             193                                 103.0000     113.0000       0.0025       0.0000       
 284                             234                             234001                              149.0000     144.6000       0.0025       0.0000       
 288                             236                             237                                 138.0000     113.0000       0.0025       0.0000       
 289                             237                             238                                 146.0000     113.0000       0.0025       0.0000       
 291                             238                             239                                 147.0000     162.8000       0.0025       0.0000       
 207                             192                             190001                              398.0000     285.0000       0.0025       0.0000       
 292                             190001                          190                                 131.0000     285.0000       0.0025       0.0000       
 294                             187                             186                                  38.0000     113.0000       0.0025       0.0000       
 295                             186                             185                                  78.0000     113.0000       0.0025       0.0000       
 296                             187                             188                                 287.0000     180.8000       0.0025       0.0000       
 297                             188                             189                                 253.0000     180.8000       0.0025       0.0000       
 299                             235001                          241                                 215.0000     113.0000       0.0025       0.0000       
 300                             241                             242                                 170.0000     113.0000       0.0025       0.0000       
 301                             241                             243                                 135.0000     113.0000       0.0025       0.0000       
 302                             243                             244                                 145.0000     126.6000       0.0025       0.0000       
 304                             244                             245                                 254.0000     126.6000       0.0025       0.0000       
 306                             182                             183                                 103.0000     113.0000       0.0025       0.0000       
 307                             183                             184                                  85.0000     113.0000       0.0025       0.0000       
 308                             187                             182                                 600.0000     361.8000       0.0025       0.0000       
 311                             182                             249                                 300.0000     361.8000       0.0025       0.0000       
 312                             249                             248                                 100.0000     162.8000       0.0025       0.0000       
 313                             248                             247                                 306.0000     144.6000       0.0025       0.0000       
 315                             247                             246                                 256.0000     144.6000       0.0025       0.0000       
 316                             246                             245                                 239.0000     126.6000       0.0025       0.0000       
 317                             180001                          249                                 450.0000     361.8000       0.0025       0.0000       
 318                             180001                          181                                 130.0000     113.0000       0.0025       0.0000       
 322                             187                             190                                 268.0000     285.0000       0.0025       0.0000       
 323                             190                             191                                  70.0000     113.0000       0.0025       0.0000       
 324                             180004                          180003                              471.0000     113.0000       0.0025       0.0000       
 325                             180002                          180003                              176.0000     113.0000       0.0025       0.0000       
 328                             180                             180001                              190.0000     361.8000       0.0025       0.0000       
 332                             199                             200                                 158.0000     113.0000       0.0025       0.0000       
 333                             202001                          284                                 206.0000     113.0000       0.0025       0.0000       
 334                             287                             286                                  83.0000     113.0000       0.0025       0.0000       
 335                             286                             285                                 165.0000     113.0000       0.0025       0.0000       
 336                             285                             284                                  69.0000     113.0000       0.0025       0.0000       
 338                             202001                          38                                  200.0000     452.2000       0.0025       0.0000       
 342                             274                             275                                  90.0000     113.0000       0.0025       0.0000       
 343                             275                             276                                 137.0000     113.0000       0.0025       0.0000       
 346                             268                             269                                  58.0000     113.0000       0.0025       0.0000       
 348                             271                             270                                 107.0000     113.0000       0.0025       0.0000       
 350                             318                             317                                 118.0000     113.0000       0.0025       0.0000       
 351                             317                             316                                 177.0000     113.0000       0.0025       0.0000       
 352                             316                             315                                 153.0000     113.0000       0.0025       0.0000       
 353                             315                             313                                 133.0000     126.6000       0.0025       0.0000       
 354                             313                             314                                 170.0000     113.0000       0.0025       0.0000       
 355                             313                             312                                 210.0000     126.6000       0.0025       0.0000       
 356                             312                             310                                 165.0000     126.6000       0.0025       0.0000       
 357                             310                             311                                 115.0000     113.0000       0.0025       0.0000       
 358                             310                             309                                 163.0000     144.6000       0.0025       0.0000       
 359                             309                             297                                 100.0000     144.6000       0.0025       0.0000       
 361                             297                             298                                 110.0000     113.0000       0.0025       0.0000       
 362                             298                             299                                 182.0000     113.0000       0.0025       0.0000       
 363                             297                             296                                  93.0000     162.8000       0.0025       0.0000       
 364                             296                             294                                 151.0000     162.8000       0.0025       0.0000       
 365                             294                             293                                  85.0000     180.8000       0.0025       0.0000       
 366                             293                             229                                 300.0000     285.0000       0.0025       0.0000       
 367                             293                             291                                 250.0000     180.8000       0.0025       0.0000       
 369                             296                             295                                 132.0000     113.0000       0.0025       0.0000       
 373                             288                             289                                 211.0000     113.0000       0.0025       0.0000       
 374                             289                             290                                  69.0000     113.0000       0.0025       0.0000       
 375                             288                             282                                 400.0000     162.8000       0.0025       0.0000       
 376                             282                             277                                 259.0000     162.8000       0.0025       0.0000       
 379                             277                             278                                 155.0000     144.6000       0.0025       0.0000       
 380                             278                             279                                 187.0000     126.6000       0.0025       0.0000       
 381                             279                             280                                 222.0000     113.0000       0.0025       0.0000       
 382                             280                             281                                  82.0000     113.0000       0.0025       0.0000       
 385                             271                             272                                 220.0000     113.0000       0.0025       0.0000       
 386                             271                             273                                 300.0000     113.0000       0.0025       0.0000       
 394                             268                             260001                              270.0000     144.6000       0.0025       0.0000       
 397                             262                             261                                  78.0000     113.0000       0.0025       0.0000       
 401                             262                             263                                  90.0000     113.0000       0.0025       0.0000       
 404                             255                             258                                 123.0000     113.0000       0.0025       0.0000       
 405                             258                             259                                  86.0000     113.0000       0.0025       0.0000       
 406                             259                             260                                  81.0000     113.0000       0.0025       0.0000       
 407                             255                             256                                  51.0000     113.0000       0.0025       0.0000       
 408                             256                             257                                 212.0000     113.0000       0.0025       0.0000       
 409                             255                             254                                 400.0000     144.6000       0.0025       0.0000       
 414                             421                             180002                              218.0000     113.0000       0.0025       0.0000       
 415                             420                             421                                 109.0000     113.0000       0.0025       0.0000       
 416                             419                             420                                  55.0000     113.0000       0.0025       0.0000       
 417                             418                             419                                 214.0000     126.6000       0.0025       0.0000       
 418                             416                             418                                 145.0000     144.6000       0.0025       0.0000       
 419                             417                             416                                 329.0000     361.8000       0.0025       0.0000       
 421                             416                             415                                 372.0000     361.8000       0.0025       0.0000       
 422                             415                             250001                              368.0000     361.8000       0.0025       0.0000       
 423                             415                             414                                  96.0000     113.0000       0.0025       0.0000       
 424                             414                             413                                  79.0000     113.0000       0.0025       0.0000       
 428                             22                              21                                  181.0000     113.0000       0.0025       0.0000       
 429                             21                              19                                  320.0000     113.0000       0.0025       0.0000       
 430                             19                              18                                  236.0000     113.0000       0.0025       0.0000       
 434                             319                             320                                  63.0000     113.0000       0.0025       0.0000       
 435                             21                              20                                  164.0000     113.0000       0.0025       0.0000       
 438                             297                             302                                 280.0000     113.0000       0.0025       0.0000       
 439                             302                             303                                 103.0000     113.0000       0.0025       0.0000       
 441                             305                             306                                 150.0000     113.0000       0.0025       0.0000       
 442                             306                             307                                  46.0000     113.0000       0.0025       0.0000       
 443                             320                             321                                 314.0000     113.0000       0.0025       0.0000       
 446                             322                             323                                 264.0000     113.0000       0.0025       0.0000       
 450                             301                             300                                 229.0000     113.0000       0.0025       0.0000       
 457                             324                             368                                 265.0000     113.0000       0.0025       0.0000       
 458                             368                             367                                  51.0000     113.0000       0.0025       0.0000       
 459                             367                             369                                  87.0000     113.0000       0.0025       0.0000       
 460                             365                             325                                 363.0000     226.2000       0.0025       0.0000       
 464                             365                             362                                 163.0000     144.6000       0.0025       0.0000       
 465                             362                             361                                 136.0000     126.6000       0.0025       0.0000       
 467                             361                             360001                              200.0000     126.6000       0.0025       0.0000       
 468                             360001                          360                                  59.0000     113.0000       0.0025       0.0000       
 469                             360                             359                                  59.0000     113.0000       0.0025       0.0000       
 471                             366                             364                                  81.0000     113.0000       0.0025       0.0000       
 472                             364                             363                                 142.0000     113.0000       0.0025       0.0000       
 473                             325                             327                                 248.0000     113.0000       0.0025       0.0000       
 474                             327                             326                                 110.0000     113.0000       0.0025       0.0000       
 476                             327                             328                                  66.0000     113.0000       0.0025       0.0000       
 477                             328                             329                                  99.0000     113.0000       0.0025       0.0000       
 479                             330                             334                                 415.0000     226.2000       0.0025       0.0000       
 480                             324                             331                                1450.0000     113.0000       0.0025       0.0000       
 481                             331                             333                                 350.0000     113.0000       0.0025       0.0000       
 482                             333                             336                                 400.0000     144.6000       0.0025       0.0000       
 485                             331                             332                                  68.0000     113.0000       0.0025       0.0000       
 486                             254                             250                                 459.0000     226.2000       0.0025       0.0000       
 487                             250                             341                                 310.0000     180.8000       0.0025       0.0000       
 489                             341                             340                                 169.0000     162.8000       0.0025       0.0000       
 490                             340                             338                                 176.0000     162.8000       0.0025       0.0000       
 492                             338                             337                                 392.0000     162.8000       0.0025       0.0000       
 496                             338                             339                                 246.0000     113.0000       0.0025       0.0000       
 497                             341                             342                                  87.0000     113.0000       0.0025       0.0000       
 498                             342                             343                                  64.0000     113.0000       0.0025       0.0000       
 499                             343                             344                                 233.0000     113.0000       0.0025       0.0000       
 500                             250                             251                                  90.0000     113.0000       0.0025       0.0000       
 501                             251                             252                                 174.0000     113.0000       0.0025       0.0000       
 503                             252                             253                                  51.0000     113.0000       0.0025       0.0000       
 506                             250002                          250003                              108.0000     285.0000       0.0025       0.0000       
 508                             412                             411                                 190.0000     361.8000       0.0025       0.0000       
 509                             411                             410                                 293.0000     285.0000       0.0025       0.0000       
 510                             410                             409                                 168.0000     361.8000       0.0025       0.0000       
 511                             409                             408                                 317.0000     285.0000       0.0025       0.0000       
 512                             408                             407001                              342.0000     285.0000       0.0025       0.0000       
 513                             407001                          406                                 415.0000     162.8000       0.0025       0.0000       
 514                             407001                          350                                 142.0000     285.0000       0.0025       0.0000       
 515                             407                             350                                 183.0000     113.0000       0.0025       0.0000       
 517                             350                             350001                              131.0000     113.0000       0.0025       0.0000       
 519                             350001                          351                                  75.0000     113.0000       0.0025       0.0000       
 520                             350001                          352                                 362.0000     113.0000       0.0025       0.0000       
 521                             350001                          356                                 392.0000     113.0000       0.0025       0.0000       
 522                             350                             345                                 236.0000     285.0000       0.0025       0.0000       
 523                             345                             346                                 168.0000     113.0000       0.0025       0.0000       
 524                             346                             347                                 263.0000     113.0000       0.0025       0.0000       
 525                             347                             348                                  84.0000     113.0000       0.0025       0.0000       
 526                             348                             349                                  50.0000     113.0000       0.0025       0.0000       
 530                             334                             335                                 182.0000     113.0000       0.0025       0.0000       
 532                             406                             405                                 158.0000     162.8000       0.0025       0.0000       
 535                             352                             353                                 102.0000     113.0000       0.0025       0.0000       
 536                             353                             354                                  69.0000     113.0000       0.0025       0.0000       
 537                             354                             355                                 121.0000     113.0000       0.0025       0.0000       
 538                             356                             357                                  81.0000     113.0000       0.0025       0.0000       
 539                             357                             358                                  96.0000     113.0000       0.0025       0.0000       
 540                             368                             370                                  87.0000     113.0000       0.0025       0.0000       
 542                             371                             372                                 195.0000     113.0000       0.0025       0.0000       
 543                             372                             373                                 209.0000     126.6000       0.0025       0.0000       
 544                             373                             374                                  67.0000     113.0000       0.0025       0.0000       
 545                             372                             378                                  55.0000     113.0000       0.0025       0.0000       
 546                             378                             379                                 167.0000     113.0000       0.0025       0.0000       
 547                             379                             380                                  81.0000     113.0000       0.0025       0.0000       
 548                             380                             381                                 225.0000     113.0000       0.0025       0.0000       
 549                             381                             382                                  44.0000     113.0000       0.0025       0.0000       
 550                             372                             376                                  90.0000     226.2000       0.0025       0.0000       
 552                             376                             384                                 286.0000     226.2000       0.0025       0.0000       
 554                             384                             383                                 146.0000     113.0000       0.0025       0.0000       
 555                             378                             377                                 170.0000     113.0000       0.0025       0.0000       
 557                             396001                          397                                 222.0000     113.0000       0.0025       0.0000       
 558                             397                             398                                  31.0000     113.0000       0.0025       0.0000       
 563                             400                             401                                  69.0000     113.0000       0.0025       0.0000       
 564                             401                             402                                 297.0000     113.0000       0.0025       0.0000       
 565                             402                             403                                  83.0000     113.0000       0.0025       0.0000       
 567                             18                              11                                   77.0000     113.0000       0.0025       0.0000       
 568                             11                              10                                  130.0000     113.0000       0.0025       0.0000       
 571                             9                               8                                   257.0000     113.0000       0.0025       0.0000       
 575                             18                              15                                  720.0000     113.0000       0.0025       0.0000       
 576                             15                              13                                  351.0000     113.0000       0.0025       0.0000       
 578                             12                              14                                  188.0000     126.6000       0.0025       0.0000       
 579                             14                              6                                   159.0000     126.6000       0.0025       0.0000       
 580                             6                               5                                   189.0000     126.6000       0.0025       0.0000       
 581                             5                               8                                    83.0000     113.0000       0.0025       0.0000       
 588                             13                              12                                  200.0000     144.6000       0.0025       0.0000       
 589                             15                              16                                   94.0000     113.0000       0.0025       0.0000       
 590                             15                              17                                  128.0000     113.0000       0.0025       0.0000       
 605                             601                             384                                  67.0000     226.2000       0.0025       0.0000       
 606                             601                             385                                 170.0000     226.2000       0.0025       0.0000       
 607                             385                             387                                 176.0000     126.6000       0.0025       0.0000       
 608                             387                             388                                 105.0000     126.6000       0.0025       0.0000       
 609                             388                             389                                 136.0000     113.0000       0.0025       0.0000       
 610                             389                             390                                 128.0000     113.0000       0.0025       0.0000       
 611                             390                             391                                  40.0000     126.6000       0.0025       0.0000       
 612                             391                             392                                  65.0000     126.6000       0.0025       0.0000       
 613                             392                             393                                  83.0000     113.0000       0.0025       0.0000       
 614                             393                             394                                 257.0000     113.0000       0.0025       0.0000       
 615                             394                             395                                  85.0000     113.0000       0.0025       0.0000       
 616                             395                             396                                 151.0000     113.0000       0.0025       0.0000       
 617                             4                               2                                   326.0000     113.0000       0.0025       0.0000       
 618                             2                               3                                   135.0000     113.0000       0.0025       0.0000       
 620                             2                               1                                   222.0000     113.0000       0.0025       0.0000       
 593                             250                             250003                              225.0000     285.0000       0.0025       0.0000       
 600                             4                               8                                   101.0000     113.0000       0.0025       0.0000       
 601                             8                               7                                   101.0000     113.0000       0.0025       0.0000       
 160                             32                              34                                  149.0000     113.0000       0.0025       0.0000       
 161                             235                             235001                              218.0000     113.0000       0.0025       0.0000       
 24                              106                             82                                  569.0000     361.8000       0.0025       0.0000       
 298                             180004                          266                                 816.0000     113.0000       0.0025       0.0000       
 331                             258001                          259001                              320.0000     113.0000       0.0025       0.0000       
 390                             82                              228                                  74.0000     113.0000       0.0025       0.0000       
 392                             227                             229                                 150.0000     361.8000       0.0025       0.0000       
 393                             227                             215001                              317.0000     361.8000       0.0025       0.0000       
 400                             319                             315                                 262.0000     113.0000       0.0025       0.0000       
 119                             59                              63                                  314.0000     113.0000       0.0025       0.0000       
 120                             63                              67                                  419.0000     113.0000       0.0025       0.0000       
 124                             260001                          262                                 345.0000     113.0000       0.0025       0.0000       
 177                             23                              22                                  671.0000     113.0000       0.0025       0.0000       
 75                              115                             108                                 421.0000     113.0000       0.0025       0.0000       
 181                             213                             234                                 700.0000     113.0000       0.0025       0.0000       
 184                             288                             291                                 603.0000     180.8000       0.0025       0.0000       
 187                             319                             322                                 477.0000     113.0000       0.0025       0.0000       
 196                             325                             330                                 380.0000     226.2000       0.0025       0.0000       
 213                             336                             337                                 206.0000     144.6000       0.0025       0.0000       
 214                             334                             345                                 616.0000     226.2000       0.0025       0.0000       
 131                             152                             153                                 347.0000     113.0000       0.0025       0.0000       
 234                             256001                          258001                              249.0000     180.8000       0.0025       0.0000       
 235                             258001                          257001                              184.0000     180.8000       0.0025       0.0000       
 236                             257001                          264                                 141.0000     162.8000       0.0025       0.0000       
 237                             264                             260001                               75.0000     162.8000       0.0025       0.0000       
 238                             265                             268                                 227.0000     113.0000       0.0025       0.0000       
 239                             268                             274                                 397.0000     113.0000       0.0025       0.0000       
 240                             274                             277                                 162.0000     113.0000       0.0025       0.0000       
 266                             405                             404                                 177.0000     144.6000       0.0025       0.0000       
 329                             400                             399                                  70.0000     113.0000       0.0025       0.0000       
 330                             404                             399                                 350.0000     162.8000       0.0025       0.0000       
 337                             399                             396001                              350.0000     113.0000       0.0025       0.0000       
 179                             220                             215001                              820.0000     113.0000       0.0025       0.0000       
 219                             75                              73                                  175.0000     113.0000       0.0025       0.0000       
 222                             83                              84                                  169.0000     113.0000       0.0025       0.0000       
 243                             83                              86                                  135.0000     285.0000       0.0025       0.0000       
 267                             86                              87                                  213.0000     285.0000       0.0025       0.0000       
 344                             89                              87                                  474.0000     285.0000       0.0025       0.0000       
 345                             229                             75                                  280.0000     285.0000       0.0025       0.0000       
 349                             202001                          82                                 1800.0000     361.8000       0.0025       0.0000       
 165                             250001                          412                                 611.0000     361.8000       0.0025       0.0000       
 194                             43                              417                                 354.0000     452.2000       0.0025       0.0000       
 64                              269                             271                                 209.0000     113.0000       0.0025       0.0000       
 106                             234001                          235                                 500.0000     113.0000       0.0025       0.0000       
 183                             234001                          238                                 400.0000     144.6000       0.0025       0.0000       
 206                             238                             240                                  44.0000     113.0000       0.0025       0.0000       
 216                             239                             189                                 300.0000     162.8000       0.0025       0.0000       
 188                             250002                          44                                  800.0000     285.0000       0.0025       0.0000       
 223                             43                              422                                 345.0000     361.8000       0.0025       0.0000       
 290                             250004                          413                                 750.0000     113.0000       0.0025       0.0000       
 168                             23                              24                                  103.6000     113.0000       0.0025       0.0000       
 182                             24                              24001                               219.0000     113.0000       0.0025       0.0000       
 186                             24001                           25                                  214.0000     113.0000       0.0025       0.0000       
 197                             46001                           45001                                80.0000     226.2000       0.0025       0.0000       
 321                             71                              71001                                23.0000     113.0000       0.0025       0.0000       
 368                             71001                           72                                  121.0000     113.0000       0.0025       0.0000       
 370                             127                             127001                              100.0000     285.0000       0.0025       0.0000       
 383                             127001                          128                                 102.0000     113.0000       0.0025       0.0000       
 145                             301001                          366                                  52.0000     113.0000       0.0025       0.0000       
 185                             365                             301001                              116.0000     126.6000       0.0025       0.0000       
 398                             301001                          301                                  79.0000     113.0000       0.0025       0.0000       
 399                             303                             304                                  82.0000     113.0000       0.0025       0.0000       
 402                             304                             305                                 157.0000     113.0000       0.0025       0.0000       
 433                             422                             180                                 381.0000     361.8000       0.0025       0.0000       
 190                             322                             324                                 363.0000     113.0000       0.0025       0.0000       
 51                              385                             88                                 2500.0000     285.0000       0.0025       0.0000       
 166                             13                              385                                 752.0000     144.6000       0.0025       0.0000       
 209                             123                             82                                  100.0000     113.0000       0.0025       0.0000       
 218                             135                             141                                 177.0000     226.2000       0.0025       0.0000       
 221                             150                             71                                  500.0000     113.0000       0.0025       0.0000       
 232                             370                             371                                 100.0000     113.0000       0.0025       0.0000       
 248                             256001                          254                                 500.0000     180.8000       0.0025       0.0000       
 5                               266                             38                                  200.0000     113.0000       0.0025       0.0000       

[PUMPS]

[VALVES]

[DEMANDS]
 179001                                5.550000                                
 179                                   5.550000                                
 177                                   5.550000                                
 174                                   5.550000                                
 173                                   5.550000                                
 171001                                5.550000                                
 171                                   5.550000                                
 172                                   5.550000                                
 170                                   5.550000                                
 165                                   5.550000                                
 166                                   5.550000                                
 168                                   5.550000                                
 169                                   5.550000                                
 163                                   5.550000                                
 164                                   5.550000                                
 162                                   5.550000                                
 161                                   5.550000                                
 106                                   5.550000                                
 124                                   5.550000                                
 125                                   5.550000                                
 125001                                5.550000                                
 126                                   5.550000                                
 127                                   5.550000                                
 128                                   5.550000                                
 129                                   5.550000                                
 130                                   5.550000                                
 132                                   5.550000                                
 131001                                5.550000                                
 131                                   5.550000                                
 133                                   5.550000                                
 134                                   5.550000                                
 135                                   5.550000                                
 136                                   5.550000                                
 137                                   5.550000                                
 138                                   5.550000                                
 139                                   5.550000                                
 141                                   5.550000                                
 143                                   5.550000                                
 144                                   5.550000                                
 145                                   5.550000                                
 142                                   5.550000                                
 140001                                5.550000                                
 151                                   5.550000                                
 152                                   5.550000                                
 107                                   5.550000                                
 108                                   5.550000                                
 109                                   5.550000                                
 110                                   5.550000                                
 111                                   5.550000                                
 113                                   5.550000                                
 114                                   5.550000                                
 112                                   5.550000                                
 115                                   5.550000                                
 116                                   5.550000                                
 117                                   5.550000                                
 118                                   5.550000                                
 119                                   5.550000                                
 105                                   5.550000                                
 102                                   5.550000                                
 103                                   5.550000                                
 104                                   5.550000                                
 100                                   5.550000                                
 101                                   5.550000                                
 96                                    5.550000                                
 97                                    5.550000                                
 98                                    5.550000                                
 99                                    5.550000                                
 93                                    5.550000                                
 94                                    5.550000                                
 95                                    5.550000                                
 92                                    5.550000                                
 160                                   5.550000                                
 159001                                5.550000                                
 159                                   5.550000                                
 156                                   5.550000                                
 157                                   5.550000                                
 158                                   5.550000                                
 155                                   5.550000                                
 154                                   5.550000                                
 153                                   5.550000                                
 55                                    5.550000                                
 59                                    5.550000                                
 60                                    5.550000                                
 61                                    5.550000                                
 62                                    5.550000                                
 147                                   5.550000                                
 150                                   5.550000                                
 148                                   5.550000                                
 149                                   5.550000                                
 63                                    5.550000                                
 64                                    5.550000                                
 65                                    5.550000                                
 66                                    5.550000                                
 67                                    5.550000                                
 68                                    5.550000                                
 69                                    5.550000                                
 70                                    5.550000                                
 71                                    5.550000                                
 72                                    5.550000                                
 56                                    5.550000                                
 57                                    5.550000                                
 58                                    5.550000                                
 53                                    5.550000                                
 54                                    5.550000                                
 52                                    5.550000                                
 46001                                 5.550000                                
 50                                    5.550000                                
 51                                    5.550000                                
 47                                    5.550000                                
 48                                    5.550000                                
 49                                    5.550000                                
 42                                    5.550000                                
 45                                    5.550000                                
 46                                    5.550000                                
 41                                    5.550000                                
 35                                    5.550000                                
 36                                    5.550000                                
 39                                    5.550000                                
 40                                    5.550000                                
 37                                    5.550000                                
 91                                    5.550000                                
 90                                    5.550000                                
 89                                    5.550000                                
 31                                    5.550000                                
 32                                    5.550000                                
 34                                    5.550000                                
 33                                    5.550000                                
 28001                                 5.550000                                
 28                                    5.550000                                
 29                                    5.550000                                
 30                                    5.550000                                
 27                                    5.550000                                
 26                                    5.550000                                
 23                                    5.550000                                
 22                                    5.550000                                
 87                                    5.550000                                
 86                                    5.550000                                
 83                                    5.550000                                
 77                                    5.550000                                
 81                                    5.550000                                
 78                                    5.550000                                
 79                                    5.550000                                
 80                                    5.550000                                
 82                                    5.550000                                
 84                                    5.550000                                
 85                                    5.550000                                
 121                                   5.550000                                
 122                                   5.550000                                
 123                                   5.550000                                
 120                                   5.550000                                
 75                                    5.550000                                
 76                                    5.550000                                
 73                                    5.550000                                
 74                                    5.550000                                
 227                                   5.550000                                
 215001                                5.550000                                
 215                                   5.550000                                
 219                                   5.550000                                
 220                                   5.550000                                
 221                                   5.550000                                
 222                                   5.550000                                
 223                                   5.550000                                
 223001                                5.550000                                
 224                                   5.550000                                
 225                                   5.550000                                
 226                                   5.550000                                
 214                                   5.550000                                
 216                                   5.550000                                
 217                                   5.550000                                
 218                                   5.550000                                
 201                                   5.550000                                
 203                                   5.550000                                
 204                                   5.550000                                
 205                                   5.550000                                
 211                                   5.550000                                
 212                                   5.550000                                
 206                                   5.550000                                
 207                                   5.550000                                
 208                                   5.550000                                
 209                                   5.550000                                
 210                                   5.550000                                
 213                                   5.550000                                
 200001                                5.550000                                
 199                                   5.550000                                
 196                                   5.550000                                
 197                                   5.550000                                
 198                                   5.550000                                
 233                                   5.550000                                
 232                                   5.550000                                
 231                                   5.550000                                
 230                                   5.550000                                
 234                                   5.550000                                
 194                                   5.550000                                
 195                                   5.550000                                
 192                                   5.550000                                
 193                                   5.550000                                
 234001                                5.550000                                
 235                                   5.550000                                
 236                                   5.550000                                
 237                                   5.550000                                
 238                                   5.550000                                
 240                                   5.550000                                
 239                                   5.550000                                
 190001                                5.550000                                
 187                                   5.550000                                
 188                                   5.550000                                
 189                                   5.550000                                
 186                                   5.550000                                
 185                                   5.550000                                
 235001                                5.550000                                
 241                                   5.550000                                
 242                                   5.550000                                
 243                                   5.550000                                
 244                                   5.550000                                
 245                                   5.550000                                
 183                                   5.550000                                
 184                                   5.550000                                
 182                                   5.550000                                
 249                                   5.550000                                
 248                                   5.550000                                
 247                                   5.550000                                
 246                                   5.550000                                
 181                                   5.550000                                
 266                                   5.550000                                
 180004                                5.550000                                
 190                                   5.550000                                
 191                                   5.550000                                
 180003                                5.550000                                
 180002                                5.550000                                
 180001                                5.550000                                
 180                                   5.550000                                
 287                                   5.550000                                
 286                                   5.550000                                
 285                                   5.550000                                
 284                                   5.550000                                
 200                                   5.550000                                
 274                                   5.550000                                
 275                                   5.550000                                
 276                                   5.550000                                
 265                                   5.550000                                
 268                                   5.550000                                
 269                                   5.550000                                
 271                                   5.550000                                
 270                                   5.550000                                
 318                                   5.550000                                
 317                                   5.550000                                
 316                                   5.550000                                
 315                                   5.550000                                
 313                                   5.550000                                
 314                                   5.550000                                
 312                                   5.550000                                
 310                                   5.550000                                
 311                                   5.550000                                
 309                                   5.550000                                
 297                                   5.550000                                
 298                                   5.550000                                
 299                                   5.550000                                
 296                                   5.550000                                
 294                                   5.550000                                
 293                                   5.550000                                
 291                                   5.550000                                
 295                                   5.550000                                
 288                                   5.550000                                
 289                                   5.550000                                
 290                                   5.550000                                
 282                                   5.550000                                
 277                                   5.550000                                
 278                                   5.550000                                
 279                                   5.550000                                
 280                                   5.550000                                
 281                                   5.550000                                
 272                                   5.550000                                
 273                                   5.550000                                
 264                                   5.550000                                
 257001                                5.550000                                
 258001                                5.550000                                
 259001                                5.550000                                
 260001                                5.550000                                
 261                                   5.550000                                
 262                                   5.550000                                
 263                                   5.550000                                
 255                                   5.550000                                
 258                                   5.550000                                
 259                                   5.550000                                
 260                                   5.550000                                
 256                                   5.550000                                
 257                                   5.550000                                
 254                                   5.550000                                
 250004                                5.550000                                
 421                                   5.550000                                
 420                                   5.550000                                
 419                                   5.550000                                
 418                                   5.550000                                
 416                                   5.550000                                
 417                                   5.550000                                
 415                                   5.550000                                
 414                                   5.550000                                
 413                                   5.550000                                
 250001                                5.550000                                
 21                                    5.550000                                
 319                                   5.550000                                
 320                                   5.550000                                
 20                                    5.550000                                
 19                                    5.550000                                
 18                                    5.550000                                
 302                                   5.550000                                
 303                                   5.550000                                
 305                                   5.550000                                
 306                                   5.550000                                
 307                                   5.550000                                
 321                                   5.550000                                
 11                                    5.550000                                
 322                                   5.550000                                
 323                                   5.550000                                
 301                                   5.550000                                
 300                                   5.550000                                
 324                                   5.550000                                
 368                                   5.550000                                
 367                                   5.550000                                
 369                                   5.550000                                
 325                                   5.550000                                
 365                                   5.550000                                
 362                                   5.550000                                
 360001                                5.550000                                
 360                                   5.550000                                
 359                                   5.550000                                
 361                                   5.550000                                
 366                                   5.550000                                
 364                                   5.550000                                
 363                                   5.550000                                
 326                                   5.550000                                
 327                                   5.550000                                
 328                                   5.550000                                
 329                                   5.550000                                
 330                                   5.550000                                
 334                                   5.550000                                
 336                                   5.550000                                
 331                                   5.550000                                
 332                                   5.550000                                
 333                                   5.550000                                
 337                                   5.550000                                
 338                                   5.550000                                
 340                                   5.550000                                
 341                                   5.550000                                
 250                                   5.550000                                
 251                                   5.550000                                
 253                                   5.550000                                
 252                                   5.550000                                
 342                                   5.550000                                
 343                                   5.550000                                
 344                                   5.550000                                
 339                                   5.550000                                
 250003                                5.550000                                
 250002                                5.550000                                
 412                                   5.550000                                
 411                                   5.550000                                
 410                                   5.550000                                
 409                                   5.550000                                
 408                                   5.550000                                
 407001                                5.550000                                
 407                                   5.550000                                
 345                                   5.550000                                
 346                                   5.550000                                
 347                                   5.550000                                
 348                                   5.550000                                
 349                                   5.550000                                
 350                                   5.550000                                
 350001                                5.550000                                
 351                                   5.550000                                
 356                                   5.550000                                
 352                                   5.550000                                
 335                                   5.550000                                
 406                                   5.550000                                
 405                                   5.550000                                
 404                                   5.550000                                
 353                                   5.550000                                
 354                                   5.550000                                
 355                                   5.550000                                
 357                                   5.550000                                
 358                                   5.550000                                
 370                                   5.550000                                
 371                                   5.550000                                
 372                                   5.550000                                
 373                                   5.550000                                
 374                                   5.550000                                
 378                                   5.550000                                
 379                                   5.550000                                
 380                                   5.550000                                
 381                                   5.550000                                
 382                                   5.550000                                
 376                                   5.550000                                
 377                                   5.550000                                
 383                                   5.550000                                
 384                                   5.550000                                
 396001                                5.550000                                
 397                                   5.550000                                
 398                                   5.550000                                
 400                                   5.550000                                
 401                                   5.550000                                
 402                                   5.550000                                
 403                                   5.550000                                
 10                                    5.550000                                
 9                                     5.550000                                
 8                                     5.550000                                
 2                                     5.550000                                
 1                                     5.550000                                
 3                                     5.550000                                
 385                                   5.550000                                
 17                                    5.550000                                
 16                                    5.550000                                
 15                                    5.550000                                
 13                                    5.550000                                
 12                                    5.550000                                
 14                                    5.550000                                
 6                                     5.550000                                
 5                                     5.550000                                
 601                                   0.000000                                
 387                                   5.550000                                
 388                                   5.550000                                
 389                                   5.550000                                
 390                                   5.550000                                
 391                                   5.550000                                
 392                                   5.550000                                
 393                                   5.550000                                
 394                                   5.550000                                
 395                                   5.550000                                
 396                                   5.550000                                
 4                                     5.550000                                
 7                                     5.550000                                
 228                                   5.550000                                
 229                                   5.550000                                
 256001                                5.550000                                
 399                                   5.550000                                
 24                                    5.550000                                
 24001                                 5.550000                                
 25                                    5.550000                                
 45001                                 5.550000                                
 71001                                 5.550000                                
 127001                                5.550000                                
 202001                                5.550000                                
 301001                                5.550000                                
 304                                   5.550000                                
 422                                   5.550000                                

[EMITTERS]

[STATUS]

[PATTERNS]

[CURVES]

[CONTROLS]

[RULES]

[QUALITY]

[SOURCES]

[MIXING]

[REACTIONS]
 ORDER  BULK            1.00
 ORDER  WALL            1
 ORDER  TANK            1.00
 GLOBAL BULK            0.000000
 GLOBAL WALL            0.000000

[ENERGY]
 GLOBAL EFFIC        75.0000
 DEMAND CHARGE       0.0000

[TIMES]
 DURATION            0:00:00
 HYDRAULIC TIMESTEP  1:00:00
 QUALITY TIMESTEP    0:06:00
 REPORT TIMESTEP     1:00:00
 REPORT START        0:00:00
 PATTERN TIMESTEP    1:00:00
 PATTERN START       0:00:00
 RULE TIMESTEP       0:06:00
 START CLOCKTIME     0:00:00
 STATISTIC           NONE

[OPTIONS]
 UNITS               LPS
 PRESSURE            METERS
 HEADLOSS            D-W
 UNBALANCED          CONTINUE 10
 QUALITY             NONE
 DEMAND MULTIPLIER   0.4500
 EMITTER EXPONENT    0.5000
 VISCOSITY           1.000000
 DIFFUSIVITY         1.000000
 SPECIFIC GRAVITY    1.000000
 TRIALS              40
 ACCURACY            0.00100000
 TOLERANCE           0.01000000
 CHECKFREQ           2
 MAXCHECK            10
 DAMPLIMIT           0.00000000

[REPORT]
 PAGESIZE            0
 STATUS              NO
 SUMMARY             NO
 ENERGY              NO
 MESSAGES            YES
 NODES               NONE
 LINKS               NONE
 Elevation           NO
 Demand              PRECISION 2
 Head                PRECISION 2
 Pressure            PRECISION 2
 Quality             NO
 Length              NO
 Diameter            NO
 Flow                PRECISION 2
 Velocity            PRECISION 2
 Headloss            PRECISION 2
 Quality             NO
 State               NO
 Setting             NO
 Reaction            NO

[COORDINATES]
 179001                               60.740000     -12.580000
 179                                  53.440000      12.580000
 177                                  15.300000      27.600000
 174                                  62.440000      40.960000
 173                                  45.590000      38.830000
 171001                               45.860000      62.360000
 171                                  56.680000      67.230000
 172                                  66.960000      67.230000
 170                                  44.510000      81.570000
 165                                  44.140000      96.370000
 166                                  59.390000      97.540000
 168                                  74.000000     101.600000
 169                                  87.260000     105.650000
 163                                  43.970000     109.170000
 164                                  30.170000     108.360000
 162                                  43.850000     121.530000
 161                                  43.970000     133.250000
 106                                  47.660000     155.220000
 124                                  85.800000     152.040000
 125                                 101.600000     150.030000
 125001                              116.410000     147.580000
 126                                 133.060000     148.860000
 127                                  92.790000     120.900000
 128                                 121.890000     102.680000
 129                                 134.330000      99.970000
 130                                 148.130000     105.380000
 132                                 122.030000      70.680000
 131001                              107.550000      53.710000
 131                                 122.430000      57.220000
 133                                 135.150000      61.550000
 134                                 151.920000      64.530000
 135                                  95.640000       0.140000
 136                                 110.800000       0.140000
 137                                 141.910000      17.990000
 138                                 148.400000       1.490000
 139                                 107.820000      -9.330000
 141                                  92.180000     -42.840000
 143                                 118.420000     -38.510000
 144                                 128.700000     -26.060000
 145                                 141.420000     -32.290000
 142                                 132.760000     -49.330000
 140001                               79.730000     -42.840000
 151                                  50.510000     -43.110000
 152                                  39.150000     -43.650000
 107                                  85.170000     169.210000
 108                                 106.280000     188.310000
 109                                 118.970000     187.930000
 110                                 133.060000     185.370000
 111                                 143.950000     194.330000
 113                                 147.150000     166.790000
 114                                 158.040000     158.470000
 112                                 141.770000     176.880000
 115                                 134.980000     241.260000
 116                                 143.670000     241.260000
 117                                 155.780000     236.760000
 118                                 174.890000     215.740000
 119                                 169.160000     231.660000
 105                                  27.960000     157.770000
 102                                  10.160000     153.950000
 103                                  12.770000     169.700000
 104                                  24.890000     174.460000
 100                                  -8.120000     150.030000
 101                                 -12.340000     182.250000
 96                                  -29.890000     150.770000
 97                                  -27.980000     120.900000
 98                                  -21.100000     106.470000
 99                                  -13.530000      91.310000
 93                                  -49.590000     150.140000
 94                                  -59.520000     178.350000
 95                                  -50.430000     201.730000
 92                                  -64.850000     145.050000
 160                                 -68.060000     115.550000
 159001                              -57.810000      85.450000
 159                                 -47.940000      59.310000
 156                                 -36.880000      38.900000
 157                                  -8.930000      52.900000
 158                                   6.220000      61.010000
 155                                 -28.410000      18.800000
 154                                  -7.850000      21.510000
 153                                  -4.600000     -27.730000
 55                                   10.160000     -74.250000
 59                                   43.210000    -148.620000
 60                                   13.970000    -146.720000
 61                                  -21.920000    -117.560000
 62                                  -22.260000    -147.350000
 147                                 112.280000    -106.200000
 150                                 136.020000    -160.700000
 148                                 120.760000    -129.550000
 149                                 155.570000    -139.750000
 63                                   77.180000    -215.620000
 64                                   35.980000    -215.770000
 65                                   12.720000    -211.990000
 66                                  -14.880000    -196.830000
 67                                  107.950000    -225.510000
 68                                  122.020000    -238.500000
 69                                  128.520000    -260.690000
 70                                  139.880000    -234.710000
 71                                  166.940000    -226.600000
 72                                  191.730000    -242.440000
 56                                  -16.500000     -86.990000
 57                                  -38.150000     -88.070000
 58                                  -61.420000     -86.990000
 53                                  -47.350000     -50.190000
 54                                  -82.520000     -49.110000
 52                                  -19.370000     -30.740000
 46001                               -41.020000      13.420000
 50                                  -54.380000      -9.600000
 51                                  -91.720000     -17.720000
 47                                  -67.910000      22.860000
 48                                  -83.600000      21.780000
 49                                 -113.910000      17.450000
 42                                  -91.390000      75.590000
 45                                 -118.150000      68.580000
 46                                 -137.720000      61.280000
 41                                  -74.780000      84.420000
 35                                  -96.430000     138.100000
 36                                 -116.880000     128.650000
 39                                 -120.130000     117.020000
 40                                 -122.840000     103.490000
 37                                 -147.460000     125.410000
 91                                  -78.200000     142.510000
 90                                 -104.900000     229.600000
 89                                  -69.300000     241.040000
 31                                 -113.160000     180.650000
 32                                 -139.220000     171.110000
 34                                 -172.280000     178.740000
 33                                 -166.450000     158.010000
 28001                              -126.510000     224.510000
 28                                 -122.060000     206.710000
 29                                 -148.120000     202.900000
 30                                 -175.460000     213.700000
 27                                 -140.040000     248.480000
 26                                 -167.750000     261.470000
 23                                 -167.750000     272.290000
 22                                 -244.050000     268.090000
 87                                  -50.130000     262.870000
 86                                  -28.990000     277.600000
 83                                  -25.150000     295.540000
 77                                   -8.490000     308.350000
 81                                    3.040000     287.210000
 78                                    9.440000     272.480000
 79                                   12.000000     248.780000
 80                                    5.600000     230.840000
 82                                   81.990000     344.650000
 84                                  -50.000000     294.810000
 85                                  -73.810000     291.340000
 121                                 134.010000     292.450000
 122                                 131.110000     311.770000
 123                                 119.520000     330.130000
 120                                 143.650000     267.100000
 75                                    1.890000     373.260000
 76                                   10.790000     309.690000
 73                                  -19.080000     363.080000
 74                                  -41.330000     351.640000
 227                                  20.030000     411.270000
 215001                               37.410000     413.200000
 215                                  76.690000     415.310000
 219                                  49.660000     382.170000
 220                                  38.380000     382.290000
 221                                  38.380000     365.870000
 222                                  27.750000     345.580000
 223                                  27.750000     330.130000
 223001                               50.940000     350.410000
 224                                  53.840000     336.890000
 225                                  53.220000     322.520000
 226                                  42.590000     302.230000
 214                                  89.510000     415.310000
 216                                  89.510000     401.220000
 217                                  89.510000     387.770000
 218                                 103.600000     396.100000
 201                                  86.940000     439.650000
 203                                  90.380000     428.280000
 204                                 111.900000     424.680000
 205                                 125.110000     424.680000
 211                                 127.710000     411.470000
 212                                 128.360000     393.720000
 206                                 143.470000     424.350000
 207                                 161.240000     424.920000
 208                                 186.870000     433.720000
 209                                 188.910000     416.730000
 210                                 188.910000     400.420000
 213                                 202.500000     456.820000
 200001                               86.940000     451.820000
 199                                  86.940000     465.910000
 196                                 100.570000     465.660000
 197                                 116.200000     465.660000
 198                                 131.150000     457.500000
 233                                 152.900000     484.000000
 232                                 173.960000     484.000000
 231                                 174.640000     497.590000
 230                                 188.230000     497.590000
 234                                 202.760000     498.480000
 194                                 101.250000     509.830000
 195                                 109.360000     500.500000
 192                                  86.940000     510.750000
 193                                  72.210000     510.750000
 234001                              202.760000     532.170000
 235                                 202.760000     558.230000
 236                                 179.460000     540.260000
 237                                 168.290000     540.210000
 238                                 168.290000     531.890000
 240                                 168.440000     515.640000
 239                                 130.300000     532.810000
 190001                               86.980000     553.990000
 187                                 116.410000     579.930000
 188                                 116.410000     547.260000
 189                                 130.500000     547.260000
 186                                 131.140000     579.930000
 185                                 148.430000     579.930000
 235001                              202.880000     578.000000
 241                                 195.830000     594.020000
 242                                 173.410000     594.020000
 243                                 195.830000     614.510000
 244                                 195.140000     636.420000
 245                                 195.830000     659.350000
 183                                 101.250000     682.420000
 184                                  94.460000     664.080000
 182                                 116.410000     683.690000
 249                                 127.760000     705.070000
 248                                 164.450000     704.830000
 247                                 195.140000     705.070000
 246                                 195.830000     682.410000
 181                                 114.410000     753.380000
 266                                  47.870000     523.940000
 180004                               72.940000     601.300000
 190                                  89.510000     579.930000
 191                                  78.620000     579.930000
 180003                               74.240000     703.030000
 180002                               90.260000     735.930000
 180001                              128.390000     752.750000
 180                                 147.150000     757.990000
 287                                   6.970000     430.280000
 286                                  17.880000     439.630000
 285                                  29.310000     438.070000
 284                                  37.570000     442.710000
 200                                  74.770000     465.910000
 274                                  -2.560000     492.760000
 275                                  23.420000     493.760000
 276                                  32.220000     500.190000
 265                                  30.520000     523.810000
 268                                  -5.840000     523.810000
 269                                 -18.360000     526.580000
 271                                 -43.240000     531.540000
 270                                 -36.580000     547.190000
 318                                -167.320000     316.880000
 317                                -156.490000     324.680000
 316                                -156.060000     347.620000
 315                                -138.740000     347.190000
 313                                -122.290000     354.110000
 314                                -122.730000     326.410000
 312                                -105.840000     359.310000
 310                                 -88.530000     365.800000
 311                                 -70.170000     361.410000
 309                                 -77.290000     382.770000
 297                                 -72.510000     397.400000
 298                                 -78.570000     414.290000
 299                                -100.220000     426.840000
 296                                 -58.230000     393.940000
 294                                 -41.770000     390.480000
 293                                 -22.900000     389.780000
 291                                 -15.270000     411.400000
 295                                 -45.240000     402.160000
 288                                  -8.910000     434.910000
 289                                 -27.060000     435.500000
 290                                 -38.310000     435.070000
 282                                   2.530000     455.260000
 277                                  -5.730000     475.600000
 278                                 -24.030000     493.510000
 279                                 -45.670000     493.940000
 280                                 -64.290000     487.450000
 281                                 -64.720000     475.320000
 272                                 -61.040000     555.690000
 273                                 -49.590000     516.910000
 264                                   4.320000     570.960000
 257001                                7.520000     582.490000
 258001                               12.060000     600.820000
 259001                               38.900000     587.610000
 260001                               -0.010000     550.610000
 261                                 -26.990000     595.820000
 262                                 -41.320000     571.930000
 263                                 -60.440000     586.270000
 255                                  41.940000     718.420000
 258                                  43.850000     677.100000
 259                                  43.210000     642.780000
 260                                  41.940000     613.540000
 256                                  49.570000     727.950000
 257                                  61.010000     740.030000
 254                                  19.060000     719.060000
 250004                               45.310000     758.630000
 421                                  96.430000     775.000000
 420                                 100.320000     804.220000
 419                                 102.920000     822.400000
 418                                 107.470000     848.380000
 416                                 110.710000     868.510000
 417                                 130.500000     886.730000
 415                                  69.810000     855.520000
 414                                  64.770000     832.940000
 413                                  53.890000     805.310000
 250001                               40.580000     843.830000
 21                                 -272.220000     287.710000
 319                                -159.450000     377.380000
 320                                -150.050000     387.130000
 20                                 -252.740000     311.090000
 19                                 -325.470000     324.950000
 18                                 -368.060000     362.450000
 302                                -100.730000     403.140000
 303                                -115.460000     410.190000
 305                                -140.260000     416.230000
 306                                -125.070000     435.810000
 307                                -134.680000     440.930000
 321                                -143.000000     394.180000
 11                                 -383.950000     352.910000
 322                                -184.740000     399.030000
 323                                -210.070000     398.380000
 301                                -162.220000     471.040000
 300                                -184.640000     479.360000
 324                                -166.560000     429.190000
 368                                -185.280000     440.930000
 367                                -177.590000     449.260000
 369                                -169.900000     457.590000
 325                                -127.150000     567.770000
 365                                -115.070000     532.810000
 362                                -151.940000     530.900000
 360001                             -199.370000     531.890000
 360                                -214.100000     534.450000
 359                                -226.910000     537.010000
 361                                -179.980000     530.490000
 366                                -163.380000     501.020000
 364                                -182.710000     507.550000
 363                                -208.980000     512.670000
 326                                -149.390000     556.330000
 327                                -148.770000     567.760000
 328                                -164.780000     568.400000
 329                                -182.710000     569.040000
 330                                -132.750000     592.100000
 334                                -143.000000     617.720000
 336                                -125.240000     644.050000
 331                                 -91.550000     525.810000
 332                                 -80.110000     528.990000
 333                                -105.530000     584.930000
 337                                -144.310000     701.890000
 338                                -110.710000     705.840000
 340                                 -65.260000     709.090000
 341                                 -39.610000     711.040000
 250                                  -4.220000     716.230000
 251                                  -4.460000     700.620000
 253                                 -10.180000     656.760000
 252                                  -7.000000     680.920000
 342                                 -38.150000     695.540000
 343                                 -38.150000     677.100000
 344                                 -43.510000     657.470000
 339                                -104.260000     671.380000
 250003                               -5.930000     744.540000
 250002                               -6.570000     770.160000
 412                                 -29.560000     815.860000
 411                                 -60.390000     802.270000
 410                                -101.300000     784.090000
 409                                -127.920000     769.160000
 408                                -168.180000     748.380000
 407001                             -235.710000     725.650000
 407                                -277.270000     684.090000
 345                                -172.280000     698.710000
 346                                -184.350000     677.740000
 347                                -193.890000     652.310000
 348                                -205.330000     626.880000
 349                                -209.150000     602.730000
 350                                -225.670000     691.720000
 350001                             -242.210000     640.580000
 351                                -258.730000     645.320000
 356                                -271.570000     582.520000
 352                                -252.090000     585.110000
 335                                -167.340000     608.110000
 406                                -339.610000     693.180000
 405                                -387.660000     674.350000
 404                                -414.750000     646.060000
 353                                -252.090000     563.030000
 354                                -254.690000     550.700000
 355                                -257.930000     537.060000
 357                                -281.310000     563.680000
 358                                -300.790000     564.980000
 370                                -200.650000     447.340000
 371                                -212.800000     461.090000
 372                                -240.730000     465.630000
 373                                -229.360000     482.190000
 374                                -220.270000     480.570000
 378                                -253.940000     445.320000
 379                                -227.660000     433.370000
 380                                -239.610000     415.460000
 381                                -244.380000     393.960000
 382                                -230.050000     384.400000
 376                                -278.710000     474.720000
 377                                -283.800000     450.100000
 383                                -375.780000     463.240000
 384                                -370.270000     489.660000
 396001                             -417.010000     569.040000
 397                                -392.850000     553.780000
 398                                -373.150000     541.070000
 400                                -441.690000     610.430000
 401                                -466.940000     619.130000
 402                                -481.750000     605.200000
 403                                -471.300000     588.660000
 10                                 -397.940000     335.750000
 9                                  -561.830000     418.230000
 8                                  -621.050000     462.250000
 2                                  -690.400000     518.230000
 1                                  -725.470000     529.920000
 3                                  -657.280000     539.010000
 385                                -469.200000     504.690000
 17                                 -422.090000     436.190000
 16                                 -441.160000     454.620000
 15                                 -453.390000     435.110000
 13                                 -489.750000     461.740000
 12                                 -519.620000     486.410000
 14                                 -545.600000     497.450000
 6                                  -576.760000     497.450000
 5                                  -612.480000     472.130000
 601                                -422.330000     496.300000
 387                                -499.490000     523.420000
 388                                -518.970000     537.060000
 389                                -541.700000     554.590000
 390                                -562.480000     557.190000
 391                                -570.270000     566.930000
 392                                -581.960000     577.970000
 393                                -593.650000     589.010000
 394                                -615.730000     605.240000
 395                                -638.450000     611.740000
 396                                -625.470000     579.920000
 4                                  -659.830000     495.300000
 7                                  -632.500000     450.810000
 228                                 120.130000     361.180000
 229                                  -0.010000     387.880000
 256001                               15.210000     629.240000
 399                                -426.590000     596.350000
 24                                 -149.910000     274.950000
 24001                              -133.000000     276.980000
 25                                 -114.730000     289.150000
 45001                               -49.990000      31.630000
 71001                               167.380000    -237.030000
 127001                              102.330000     101.190000
 202001                               47.870000     439.650000
 301001                             -144.940000     492.760000
 304                                -129.090000     412.160000
 422                                 166.530000     836.650000
 38                                   52.150000     481.540000
 43                                  192.620000     913.460000
 44                                   30.170000     822.680000
 88                                 -567.070000     714.700000

[VERTICES]

[TAGS]

[LABELS]
;X-Coord           Y-Coord          Label & Anchor Node

[BACKDROP]
 DIMENSIONS     	-771.89         	-319.40         	249.30          	972.17          
 UNITS          	None
 FILE           	
 OFFSET         	0.00            	0.00            

[END]
